c instance by G2
c solution = 1111001110001
c Known solution cost is 499 
p cnf 13 30
w 38 8 71 21 30 27 79 63 0 19 52 44 47
-12 -7 -4 0
-8 -6 -1 0
-8 3 2 0
10 13 6 0
-7 -4 -10 0
7 -2 -13 0
-10 -4 1 0
5 9 11 0
7 -1 -9 0
11 -9 1 0
2 -13 5 0
-5 -6 -2 0
-7 2 -8 0
11 -3 -5 0
12 -13 9 0
12 3 5 0
-3 12 -5 0
5 -2 4 0
-2 -7 1 0
-3 -7 8 0
-8 5 13 0
11 -12 -6 0
5 -6 13 0
-12 1 8 0
4 13 3 0
-11 -1 12 0
-12 -2 -8 0
4 -13 -8 0
-3 -13 -10 0
-3 2 -11 0
